&vmat_para
    !   
    ! operator-------------------------------------
    !
    vmat = 11
    vmat_name = 'Pi'
    vmat_k = 1
    bstart=1,  bend=800
    ! vmat_bands(:) = 11, 12, 17, 18  ! s_up s_down p_up p_down
    print_only_diagnal = .false.
    !
    ! soc------------------------------------------
    !
    cfactor=1.0
    socfactor=1.0
    nosoc_inH = .false.
/
