Mo1 Se2                                 
   1.00000000000000     
     3.3311810310265946    0.0000000000000000    0.0000000000000000
    -1.6655905155132973    2.8848873974738694    0.0000000000000000
     0.0000000000000000    0.0000000000000000   30.0000000000000000
   Mo   Se
     1     2
Direct
 -0.0000000000000000 -0.0000000000000000  0.5000000000000000
  0.6666666666666643  0.3333333333333357  0.4441251244934100
  0.6666666666666643  0.3333333333333357  0.5558748755065899
 
  0.00000000E+00  0.00000000E+00  0.00000000E+00
  0.00000000E+00  0.00000000E+00  0.00000000E+00
  0.00000000E+00  0.00000000E+00  0.00000000E+00
