SYSTEM=MoTe2
ENCUT=500

ISTART=0
ICHARG=11

PREC=Accurate
EDIFF=1E-6
ISMEAR=0
SIGMA=0.03
NBANDS=600
LSORBIT=.True.
MAGMOM=1000*0.0
LORBIT=11
#SAXIS=0 0 1
NPAR=4

LWAVE=.True.
LCHARG=.False.

#LHFCALC=.TRUE.
#HFSCREEN=0.2 #HSE
#PRECFOCK=Accurate

#NELM=10

