SG 187  0.000  0.000  0.000 :Generated by pos2aBR for irvsp!
    1.0
     3.5617207674224138     0.0000000000000000     0.0000000000000000
    -1.7808603837112069     3.0845406657744165     0.0000000000000000
     0.0000000000000000     0.0000000000000000    30.0000000000000000
 Mo  Te 
   1   2
Direct
  0.0000000000000000  0.0000000000000000  0.5000000000000000
  0.6666666666666666  0.3333333333333333  0.4394821186552323
  0.6666666666666667  0.3333333333333334  0.5605178813447677
