MoSe2
1
Reciprocal lattice
0.33333333333333   0.33333333333   0   1.0
