SG 187  0.000  0.000  0.000 :Generated by pos2aBR for irvsp!
    1.0
     3.5618626355896055     0.0000000000000000     0.0000000000000000
    -1.7809313177948027     3.0846635272111929     0.0000000000000000
     0.0000000000000000     0.0000000000000000    30.0000000000000000
 Te  W  
   2   1
Direct
  0.6666666666666665  0.3333333333333333  0.5605394635730430
  0.6666666666666666  0.3333333333333333  0.4394605364269570
  0.0000000000000000  0.0000000000000000  0.5000000000000000
