Automatically generated mesh
       1
Reciprocal lattice
    0.3333333333   0.3333333333   0.0000000000    1