SG 187  0.000  0.000  0.000 :Generated by pos2aBR for irvsp!
    1.0
     3.3263219454790312     0.0000000000000000     0.0000000000000000
    -1.6631609727395154     2.8806793059505167     0.0000000000000000
     0.0000000000000000     0.0000000000000000    30.0000000000000071
 Se  W  
   2   1
Direct
  0.6666666666666665  0.3333333333333333  0.4439181944356788
  0.6666666666666666  0.3333333333333334  0.5560818055643210
  0.0000000000000000  0.0000000000000000  0.4999999999999999
