SG 166  0.000  0.000  0.000 :Generated by pos2aBR for irvsp!
    1.0
     2.0690000000000000     1.1945377069533354     9.5466666666666651
    -2.0690000000000000     1.1945377069533354     9.5466666666666651
    -0.0000000000000001    -2.3890754139066708     9.5466666666666651
 Bi  Se 
   2   3
Direct
  0.3990000000000000  0.3990000000000000  0.3990000000000000
  0.6010000000000000  0.6010000000000001  0.6010000000000002
  0.2060000000000000  0.2060000000000002  0.2060000000000003
  0.7939999999999998  0.7940000000000002  0.7940000000000002
  0.0000000000000000  0.0000000000000000  0.0000000000000000